% Auto-generated by scripts/generate_dzn.py
% problem_type   = regex
% instance       = regex_9
% source_json    = instances_json/1_medium_blowup/regex_9.json
% blowup         = 4.1
% representation = DFA

mode = 0;

var_count = 12;
Q = 41;
S = 3;
q0 = 1;
F = {29, 30, 31, 32, 33, 34, 35, 36, 37, 38, 39, 40, 41};
d_dfa = array2d(1..41, 1..3, [
  1, 1, 2,
  1, 3, 2,
  1, 4, 2,
  6, 6, 5,
  9, 8, 7,
  9, 9, 7,
  12, 11, 10,
  12, 13, 10,
  12, 12, 10,
  16, 15, 14,
  16, 17, 14,
  16, 16, 14,
  19, 19, 18,
  22, 21, 20,
  22, 23, 20,
  22, 22, 20,
  25, 25, 24,
  28, 27, 26,
  28, 28, 26,
  31, 30, 29,
  31, 32, 29,
  31, 31, 29,
  34, 34, 33,
  37, 36, 35,
  37, 37, 35,
  40, 39, 38,
  40, 41, 38,
  40, 40, 38,
  1, 3, 2,
  1, 4, 2,
  1, 1, 2,
  6, 6, 5,
  9, 8, 7,
  9, 9, 7,
  12, 11, 10,
  12, 13, 10,
  12, 12, 10,
  16, 15, 14,
  16, 17, 14,
  16, 16, 14,
  19, 19, 18
]);
d_nfa = array2d(1..41, 1..3, [
  {}, {}, {},
  {}, {}, {},
  {}, {}, {},
  {}, {}, {},
  {}, {}, {},
  {}, {}, {},
  {}, {}, {},
  {}, {}, {},
  {}, {}, {},
  {}, {}, {},
  {}, {}, {},
  {}, {}, {},
  {}, {}, {},
  {}, {}, {},
  {}, {}, {},
  {}, {}, {},
  {}, {}, {},
  {}, {}, {},
  {}, {}, {},
  {}, {}, {},
  {}, {}, {},
  {}, {}, {},
  {}, {}, {},
  {}, {}, {},
  {}, {}, {},
  {}, {}, {},
  {}, {}, {},
  {}, {}, {},
  {}, {}, {},
  {}, {}, {},
  {}, {}, {},
  {}, {}, {},
  {}, {}, {},
  {}, {}, {},
  {}, {}, {},
  {}, {}, {},
  {}, {}, {},
  {}, {}, {},
  {}, {}, {},
  {}, {}, {},
  {}, {}, {}
]);
